c Standarized MaxSat Instance
c{
c "sha1sum": "494335e8871f5e67e6c263e9ff67b4fa0688e4b4",
c "nvars": 40,
c "ncls": 790,
c "nhards": 0,
c "nhard_len_stats":
c    { "min": 0, "max": 0, "ave": 0.00,
c      "stddev": 0.00 },
c "nsofts": 790,
c "nsoft_len_stats":
c    { "min": 2, "max": 2, "ave": 2.00,
c      "stddev": 0.00 },
c "nsoft_wts": 10,
c "soft_wt_stats":
c    { "min": 1, "max": 10, "ave": 5.64,
c      "stddev": 2.88 }
c}
c------------------------------------------------------------
c File:  san400_0.5_1.clq
c
c SOURCE: Laura Sanchis (laura@cs.colgate.edu)
c
c REFERENCE: "Test Case Construction for the Vertex Cover Problem", 
c DIMACS Workshop on Computational Support for Discrete Mathematics, 
c March, 1992, with additional work in a to be published technical
c report.
c
c 400 vertices 39900 edges 13 max clique
c 400 39900 387 2725 196200 6
p wcnf 40 790 4457
9 1 2 0
9 -1 -2 0
4 1 3 0
4 -1 -3 0
8 1 4 0
8 -1 -4 0
8 1 6 0
8 -1 -6 0
10 1 7 0
10 -1 -7 0
2 1 10 0
2 -1 -10 0
4 1 13 0
4 -1 -13 0
8 1 14 0
8 -1 -14 0
3 1 15 0
3 -1 -15 0
6 1 16 0
6 -1 -16 0
5 1 18 0
5 -1 -18 0
7 1 19 0
7 -1 -19 0
4 1 23 0
4 -1 -23 0
6 1 24 0
6 -1 -24 0
10 1 29 0
10 -1 -29 0
10 1 32 0
10 -1 -32 0
7 1 33 0
7 -1 -33 0
8 1 37 0
8 -1 -37 0
2 1 38 0
2 -1 -38 0
7 1 39 0
7 -1 -39 0
1 2 5 0
1 -2 -5 0
3 2 8 0
3 -2 -8 0
2 2 9 0
2 -2 -9 0
9 2 10 0
9 -2 -10 0
2 2 11 0
2 -2 -11 0
5 2 14 0
5 -2 -14 0
2 2 16 0
2 -2 -16 0
2 2 23 0
2 -2 -23 0
10 2 24 0
10 -2 -24 0
3 2 25 0
3 -2 -25 0
6 2 26 0
6 -2 -26 0
9 2 30 0
9 -2 -30 0
7 2 31 0
7 -2 -31 0
3 2 35 0
3 -2 -35 0
7 2 36 0
7 -2 -36 0
6 2 40 0
6 -2 -40 0
5 3 4 0
5 -3 -4 0
10 3 6 0
10 -3 -6 0
3 3 7 0
3 -3 -7 0
8 3 11 0
8 -3 -11 0
6 3 12 0
6 -3 -12 0
8 3 13 0
8 -3 -13 0
5 3 14 0
5 -3 -14 0
9 3 15 0
9 -3 -15 0
3 3 16 0
3 -3 -16 0
4 3 17 0
4 -3 -17 0
9 3 19 0
9 -3 -19 0
10 3 20 0
10 -3 -20 0
1 3 21 0
1 -3 -21 0
10 3 22 0
10 -3 -22 0
6 3 24 0
6 -3 -24 0
1 3 27 0
1 -3 -27 0
2 3 31 0
2 -3 -31 0
7 3 33 0
7 -3 -33 0
9 3 34 0
9 -3 -34 0
4 3 36 0
4 -3 -36 0
1 3 38 0
1 -3 -38 0
1 4 6 0
1 -4 -6 0
5 4 7 0
5 -4 -7 0
1 4 12 0
1 -4 -12 0
3 4 13 0
3 -4 -13 0
10 4 14 0
10 -4 -14 0
10 4 15 0
10 -4 -15 0
9 4 16 0
9 -4 -16 0
3 4 17 0
3 -4 -17 0
6 4 18 0
6 -4 -18 0
4 4 19 0
4 -4 -19 0
8 4 20 0
8 -4 -20 0
6 4 21 0
6 -4 -21 0
7 4 22 0
7 -4 -22 0
6 4 23 0
6 -4 -23 0
1 4 27 0
1 -4 -27 0
5 4 28 0
5 -4 -28 0
10 4 29 0
10 -4 -29 0
10 4 31 0
10 -4 -31 0
8 4 32 0
8 -4 -32 0
3 4 33 0
3 -4 -33 0
8 4 34 0
8 -4 -34 0
7 4 37 0
7 -4 -37 0
4 4 38 0
4 -4 -38 0
7 4 39 0
7 -4 -39 0
2 5 6 0
2 -5 -6 0
5 5 8 0
5 -5 -8 0
9 5 9 0
9 -5 -9 0
9 5 10 0
9 -5 -10 0
4 5 11 0
4 -5 -11 0
3 5 16 0
3 -5 -16 0
9 5 17 0
9 -5 -17 0
4 5 23 0
4 -5 -23 0
7 5 24 0
7 -5 -24 0
10 5 25 0
10 -5 -25 0
6 5 26 0
6 -5 -26 0
7 5 27 0
7 -5 -27 0
9 5 28 0
9 -5 -28 0
5 5 29 0
5 -5 -29 0
10 5 30 0
10 -5 -30 0
4 5 35 0
4 -5 -35 0
9 5 36 0
9 -5 -36 0
7 5 40 0
7 -5 -40 0
10 6 7 0
10 -6 -7 0
5 6 12 0
5 -6 -12 0
3 6 13 0
3 -6 -13 0
10 6 14 0
10 -6 -14 0
10 6 15 0
10 -6 -15 0
2 6 17 0
2 -6 -17 0
9 6 18 0
9 -6 -18 0
7 6 19 0
7 -6 -19 0
5 6 20 0
5 -6 -20 0
7 6 21 0
7 -6 -21 0
3 6 22 0
3 -6 -22 0
8 6 26 0
8 -6 -26 0
4 6 27 0
4 -6 -27 0
5 6 31 0
5 -6 -31 0
3 6 32 0
3 -6 -32 0
2 6 33 0
2 -6 -33 0
3 6 34 0
3 -6 -34 0
6 6 37 0
6 -6 -37 0
5 6 38 0
5 -6 -38 0
2 6 39 0
2 -6 -39 0
10 6 40 0
10 -6 -40 0
2 7 12 0
2 -7 -12 0
2 7 13 0
2 -7 -13 0
5 7 15 0
5 -7 -15 0
8 7 16 0
8 -7 -16 0
10 7 17 0
10 -7 -17 0
10 7 18 0
10 -7 -18 0
7 7 19 0
7 -7 -19 0
4 7 20 0
4 -7 -20 0
8 7 21 0
8 -7 -21 0
4 7 22 0
4 -7 -22 0
3 7 25 0
3 -7 -25 0
3 7 27 0
3 -7 -27 0
6 7 31 0
6 -7 -31 0
3 7 32 0
3 -7 -32 0
2 7 33 0
2 -7 -33 0
8 7 34 0
8 -7 -34 0
2 7 37 0
2 -7 -37 0
8 7 39 0
8 -7 -39 0
2 7 40 0
2 -7 -40 0
8 8 9 0
8 -8 -9 0
1 8 10 0
1 -8 -10 0
10 8 11 0
10 -8 -11 0
1 8 18 0
1 -8 -18 0
6 8 21 0
6 -8 -21 0
2 8 22 0
2 -8 -22 0
3 8 23 0
3 -8 -23 0
8 8 24 0
8 -8 -24 0
8 8 25 0
8 -8 -25 0
7 8 26 0
7 -8 -26 0
10 8 28 0
10 -8 -28 0
7 8 29 0
7 -8 -29 0
8 8 30 0
8 -8 -30 0
1 8 31 0
1 -8 -31 0
2 8 33 0
2 -8 -33 0
6 8 36 0
6 -8 -36 0
1 8 38 0
1 -8 -38 0
1 9 10 0
1 -9 -10 0
3 9 11 0
3 -9 -11 0
5 9 12 0
5 -9 -12 0
9 9 23 0
9 -9 -23 0
6 9 24 0
6 -9 -24 0
8 9 26 0
8 -9 -26 0
1 9 28 0
1 -9 -28 0
2 9 29 0
2 -9 -29 0
10 9 30 0
10 -9 -30 0
3 9 31 0
3 -9 -31 0
9 9 35 0
9 -9 -35 0
2 9 37 0
2 -9 -37 0
10 9 40 0
10 -9 -40 0
1 10 20 0
1 -10 -20 0
9 10 23 0
9 -10 -23 0
1 10 25 0
1 -10 -25 0
1 10 26 0
1 -10 -26 0
10 10 28 0
10 -10 -28 0
6 10 29 0
6 -10 -29 0
2 10 30 0
2 -10 -30 0
2 10 35 0
2 -10 -35 0
4 10 36 0
4 -10 -36 0
10 10 40 0
10 -10 -40 0
9 11 15 0
9 -11 -15 0
4 11 16 0
4 -11 -16 0
6 11 23 0
6 -11 -23 0
6 11 25 0
6 -11 -25 0
5 11 26 0
5 -11 -26 0
7 11 28 0
7 -11 -28 0
1 11 29 0
1 -11 -29 0
6 11 30 0
6 -11 -30 0
8 11 35 0
8 -11 -35 0
4 11 36 0
4 -11 -36 0
10 11 37 0
10 -11 -37 0
6 11 40 0
6 -11 -40 0
9 12 13 0
9 -12 -13 0
8 12 14 0
8 -12 -14 0
7 12 15 0
7 -12 -15 0
1 12 16 0
1 -12 -16 0
8 12 18 0
8 -12 -18 0
9 12 19 0
9 -12 -19 0
10 12 32 0
10 -12 -32 0
9 12 33 0
9 -12 -33 0
9 12 37 0
9 -12 -37 0
10 12 38 0
10 -12 -38 0
8 12 39 0
8 -12 -39 0
10 12 40 0
10 -12 -40 0
10 13 14 0
10 -13 -14 0
7 13 16 0
7 -13 -16 0
5 13 17 0
5 -13 -17 0
2 13 18 0
2 -13 -18 0
9 13 19 0
9 -13 -19 0
9 13 20 0
9 -13 -20 0
1 13 21 0
1 -13 -21 0
7 13 22 0
7 -13 -22 0
3 13 27 0
3 -13 -27 0
7 13 30 0
7 -13 -30 0
3 13 31 0
3 -13 -31 0
8 13 32 0
8 -13 -32 0
4 13 33 0
4 -13 -33 0
4 13 34 0
4 -13 -34 0
3 13 37 0
3 -13 -37 0
1 13 38 0
1 -13 -38 0
7 13 39 0
7 -13 -39 0
3 13 40 0
3 -13 -40 0
7 14 15 0
7 -14 -15 0
6 14 16 0
6 -14 -16 0
10 14 17 0
10 -14 -17 0
3 14 18 0
3 -14 -18 0
6 14 19 0
6 -14 -19 0
8 14 20 0
8 -14 -20 0
2 14 21 0
2 -14 -21 0
5 14 22 0
5 -14 -22 0
6 14 25 0
6 -14 -25 0
10 14 27 0
10 -14 -27 0
5 14 31 0
5 -14 -31 0
4 14 32 0
4 -14 -32 0
9 14 33 0
9 -14 -33 0
5 14 34 0
5 -14 -34 0
1 14 37 0
1 -14 -37 0
4 14 39 0
4 -14 -39 0
6 15 16 0
6 -15 -16 0
9 15 17 0
9 -15 -17 0
3 15 18 0
3 -15 -18 0
7 15 19 0
7 -15 -19 0
5 15 20 0
5 -15 -20 0
5 15 21 0
5 -15 -21 0
4 15 22 0
4 -15 -22 0
8 15 24 0
8 -15 -24 0
2 15 27 0
2 -15 -27 0
7 15 31 0
7 -15 -31 0
1 15 32 0
1 -15 -32 0
5 15 33 0
5 -15 -33 0
7 15 34 0
7 -15 -34 0
7 15 36 0
7 -15 -36 0
7 15 37 0
7 -15 -37 0
4 15 38 0
4 -15 -38 0
2 15 39 0
2 -15 -39 0
7 16 17 0
7 -16 -17 0
7 16 18 0
7 -16 -18 0
8 16 19 0
8 -16 -19 0
4 16 20 0
4 -16 -20 0
8 16 21 0
8 -16 -21 0
3 16 22 0
3 -16 -22 0
10 16 27 0
10 -16 -27 0
7 16 31 0
7 -16 -31 0
7 16 32 0
7 -16 -32 0
3 16 33 0
3 -16 -33 0
6 16 34 0
6 -16 -34 0
1 16 37 0
1 -16 -37 0
3 16 38 0
3 -16 -38 0
9 16 39 0
9 -16 -39 0
7 17 18 0
7 -17 -18 0
1 17 19 0
1 -17 -19 0
2 17 32 0
2 -17 -32 0
4 17 33 0
4 -17 -33 0
6 17 37 0
6 -17 -37 0
6 17 38 0
6 -17 -38 0
7 17 39 0
7 -17 -39 0
3 18 19 0
3 -18 -19 0
8 18 20 0
8 -18 -20 0
3 18 21 0
3 -18 -21 0
4 18 22 0
4 -18 -22 0
2 18 24 0
2 -18 -24 0
10 18 27 0
10 -18 -27 0
1 18 28 0
1 -18 -28 0
9 18 31 0
9 -18 -31 0
4 18 33 0
4 -18 -33 0
2 18 34 0
2 -18 -34 0
5 18 38 0
5 -18 -38 0
10 19 20 0
10 -19 -20 0
10 19 21 0
10 -19 -21 0
8 19 22 0
8 -19 -22 0
7 19 27 0
7 -19 -27 0
2 19 29 0
2 -19 -29 0
7 19 31 0
7 -19 -31 0
4 19 32 0
4 -19 -32 0
8 19 34 0
8 -19 -34 0
10 19 37 0
10 -19 -37 0
10 19 38 0
10 -19 -38 0
9 19 39 0
9 -19 -39 0
3 19 40 0
3 -19 -40 0
8 20 24 0
8 -20 -24 0
6 20 30 0
6 -20 -30 0
3 20 32 0
3 -20 -32 0
10 20 33 0
10 -20 -33 0
10 20 37 0
10 -20 -37 0
9 20 38 0
9 -20 -38 0
5 20 39 0
5 -20 -39 0
6 21 25 0
6 -21 -25 0
2 21 26 0
2 -21 -26 0
3 21 32 0
3 -21 -32 0
9 21 33 0
9 -21 -33 0
5 21 37 0
5 -21 -37 0
5 21 38 0
5 -21 -38 0
9 21 39 0
9 -21 -39 0
5 22 23 0
5 -22 -23 0
3 22 32 0
3 -22 -32 0
2 22 33 0
2 -22 -33 0
7 22 37 0
7 -22 -37 0
8 22 38 0
8 -22 -38 0
2 22 39 0
2 -22 -39 0
7 22 40 0
7 -22 -40 0
5 23 24 0
5 -23 -24 0
9 23 25 0
9 -23 -25 0
8 23 28 0
8 -23 -28 0
2 23 29 0
2 -23 -29 0
3 23 33 0
3 -23 -33 0
5 23 35 0
5 -23 -35 0
2 23 36 0
2 -23 -36 0
2 23 39 0
2 -23 -39 0
4 23 40 0
4 -23 -40 0
4 24 25 0
4 -24 -25 0
10 24 26 0
10 -24 -26 0
10 24 28 0
10 -24 -28 0
7 24 29 0
7 -24 -29 0
9 24 30 0
9 -24 -30 0
9 24 32 0
9 -24 -32 0
5 24 34 0
5 -24 -34 0
4 24 35 0
4 -24 -35 0
4 24 36 0
4 -24 -36 0
7 24 40 0
7 -24 -40 0
7 25 26 0
7 -25 -26 0
3 25 28 0
3 -25 -28 0
2 25 29 0
2 -25 -29 0
1 25 30 0
1 -25 -30 0
2 25 33 0
2 -25 -33 0
7 25 35 0
7 -25 -35 0
4 25 38 0
4 -25 -38 0
3 25 39 0
3 -25 -39 0
4 25 40 0
4 -25 -40 0
1 26 28 0
1 -26 -28 0
5 26 29 0
5 -26 -29 0
10 26 35 0
10 -26 -35 0
6 26 36 0
6 -26 -36 0
3 26 40 0
3 -26 -40 0
7 27 32 0
7 -27 -32 0
8 27 33 0
8 -27 -33 0
5 27 35 0
5 -27 -35 0
2 27 37 0
2 -27 -37 0
9 27 38 0
9 -27 -38 0
7 27 39 0
7 -27 -39 0
6 28 30 0
6 -28 -30 0
3 28 31 0
3 -28 -31 0
6 28 35 0
6 -28 -35 0
5 28 36 0
5 -28 -36 0
9 28 40 0
9 -28 -40 0
4 29 30 0
4 -29 -30 0
3 29 33 0
3 -29 -33 0
4 29 35 0
4 -29 -35 0
8 29 36 0
8 -29 -36 0
7 29 40 0
7 -29 -40 0
10 30 31 0
10 -30 -31 0
4 30 35 0
4 -30 -35 0
9 30 36 0
9 -30 -36 0
2 30 40 0
2 -30 -40 0
5 31 32 0
5 -31 -32 0
1 31 33 0
1 -31 -33 0
8 31 36 0
8 -31 -36 0
8 31 37 0
8 -31 -37 0
3 31 38 0
3 -31 -38 0
2 31 39 0
2 -31 -39 0
9 32 33 0
9 -32 -33 0
8 32 34 0
8 -32 -34 0
1 32 38 0
1 -32 -38 0
5 33 34 0
5 -33 -34 0
10 33 37 0
10 -33 -37 0
8 33 38 0
8 -33 -38 0
3 33 39 0
3 -33 -39 0
5 34 35 0
5 -34 -35 0
9 34 37 0
9 -34 -37 0
1 34 38 0
1 -34 -38 0
1 34 39 0
1 -34 -39 0
4 35 36 0
4 -35 -36 0
4 35 38 0
4 -35 -38 0
7 36 37 0
7 -36 -37 0
9 36 40 0
9 -36 -40 0
2 37 38 0
2 -37 -38 0
1 38 39 0
1 -38 -39 0
